
******************************************************************************
This program contains Ipopt, a library for large-scale nonlinear optimization.
 Ipopt is released as open source code under the Eclipse Public License (EPL).
         For more information visit http://projects.coin-or.org/Ipopt

This version of Ipopt was compiled from source code available at
    https://github.com/IDAES/Ipopt as part of the Institute for the Design of
    Advanced Energy Systems Process Systems Engineering Framework (IDAES PSE
    Framework) Copyright (c) 2018-2019. See https://github.com/IDAES/idaes-pse.

This version of Ipopt was compiled using HSL, a collection of Fortran codes
    for large-scale scientific computation.  All technical papers, sales and
    publicity material resulting from use of the HSL codes within IPOPT must
    contain the following acknowledgement:
        HSL, a collection of Fortran codes for large-scale scientific
        computation. See http://www.hsl.rl.ac.uk.
******************************************************************************

This is Ipopt version 3.13.2, running with linear solver ma27.

Number of nonzeros in equality constraint Jacobian...:      958
Number of nonzeros in inequality constraint Jacobian.:        0
Number of nonzeros in Lagrangian Hessian.............:      832

Total number of variables............................:      416
                     variables with only lower bounds:      128
                variables with lower and upper bounds:      224
                     variables with only upper bounds:        0
Total number of equality constraints.................:      415
Total number of inequality constraints...............:        0
        inequality constraints with only lower bounds:        0
   inequality constraints with lower and upper bounds:        0
        inequality constraints with only upper bounds:        0

iter    objective    inf_pr   inf_du lg(mu)  ||d||  lg(rg) alpha_du alpha_pr  ls
   0  0.0000000e+00 1.18e+00 1.93e-13  -1.0 0.00e+00    -  0.00e+00 0.00e+00   0
   1  1.0465086e+01 1.16e+00 6.24e+05  -1.0 1.31e+07    -  2.30e-02 1.51e-02h  3
   2  2.6600865e+01 1.15e+00 7.19e+05  -1.0 2.12e+07    -  2.18e-02 7.57e-03h  4
   3  3.6256838e+01 1.15e+00 7.35e+05  -1.0 2.81e+07    -  2.07e-02 2.86e-03h  5
   4  4.6943469e+01 1.14e+00 7.49e+05  -1.0 3.17e+07    -  2.00e-02 2.49e-03h  5
   5  4.9652520e+01 1.14e+00 7.49e+05  -1.0 3.62e+07    -  2.07e-02 5.21e-04h  7
   6  4.3099475e+02 1.11e+00 3.81e+06  -1.0 3.88e+07    -  1.99e-02 3.00e-02h  1
   7  4.3906472e+02 1.11e+00 3.81e+06  -1.0 4.94e+07    -  2.55e-02 2.77e-04h  1
   8r 4.3906472e+02 1.11e+00 9.99e+02   0.0 0.00e+00    -  0.00e+00 3.83e-07R  4
   9r 4.3906621e+02 1.03e+00 9.90e+02   0.0 5.57e+02    -  3.06e-03 8.88e-03f  1
iter    objective    inf_pr   inf_du lg(mu)  ||d||  lg(rg) alpha_du alpha_pr  ls
  10r 4.3906621e+02 1.89e+00 9.88e+02   0.0 9.32e+02  -2.0 1.73e-03 2.11e-03f  1
  11r 4.3906798e+02 1.86e+00 9.77e+02   0.0 5.40e+02    -  2.65e-02 1.12e-02f  1
  12r 4.3906909e+02 3.09e+00 9.64e+02   0.0 5.31e+02    -  1.55e-02 1.33e-02f  1
  13r 4.3906909e+02 3.02e+00 9.44e+02   0.0 1.39e+01   0.2 1.16e-01 2.08e-02f  1
  14r 4.3906909e+02 3.01e+00 9.77e+02   0.0 4.24e+02   1.6 3.12e-02 2.83e-03f  1
  15r 4.3906911e+02 2.95e+00 9.25e+02   0.0 1.77e+03    -  2.49e-03 2.09e-02f  1
  16r 4.3906987e+02 2.93e+00 9.14e+02   0.0 5.75e+02    -  2.57e-02 7.83e-03f  1
  17r 4.3906986e+02 2.92e+00 9.92e+02   0.0 1.82e+03    -  2.79e-02 2.63e-03f  1
  18r 4.3907025e+02 2.90e+00 9.71e+02   0.0 6.11e+02    -  2.20e-03 5.29e-03f  1
  19r 4.3907025e+02 2.76e+00 9.05e+02   0.0 3.11e+00   1.1 1.13e-01 5.13e-02f  1
iter    objective    inf_pr   inf_du lg(mu)  ||d||  lg(rg) alpha_du alpha_pr  ls
  20r 4.3907025e+02 2.24e+00 7.43e+02   0.0 7.25e+00   0.6 3.41e-01 1.87e-01f  1
  21r 4.3907027e+02 2.23e+00 8.64e+02   0.0 2.16e+03    -  3.06e-02 2.91e-03f  1
  22r 4.3907027e+02 1.71e+00 9.45e+02   0.0 2.23e+00   1.9 4.42e-02 2.33e-01f  1
  23r 4.3907027e+02 1.57e+00 9.00e+02   0.0 3.87e+00   2.4 7.73e-02 8.36e-02f  1
  24r 4.3907027e+02 1.52e+00 6.95e+02   0.0 1.57e+00   2.8 1.33e-01 3.14e-02f  1
  25r 4.3907027e+02 1.31e+00 6.14e+02   0.0 1.52e+00   2.3 1.00e-01 1.41e-01f  1
  26r 4.3907027e+02 1.02e+00 3.87e+02   0.0 1.30e+00   2.7 4.21e-01 2.23e-01f  1
  27r 4.3907027e+02 7.94e-01 1.42e+03   0.0 9.82e-01   3.2 8.18e-02 8.00e-01f  1
  28  4.3870842e+02 7.94e-01 7.22e+05  -1.0 1.18e+08    -  2.53e-02 2.73e-05h  1
  29  4.1504583e+02 5.87e+00 3.39e+06  -1.0 1.68e+08    -  1.69e-02 9.92e-04f  3
iter    objective    inf_pr   inf_du lg(mu)  ||d||  lg(rg) alpha_du alpha_pr  ls
  30  4.0975195e+02 5.87e+00 8.68e+06  -1.0 1.67e+08    -  1.71e-02 2.39e-04f  5
  31  4.0771971e+02 5.87e+00 6.08e+07  -1.0 1.67e+08    -  1.80e-02 9.50e-05f  6
  32  4.0126553e+02 5.86e+00 1.01e+08  -1.0 1.67e+08    -  1.95e-02 3.12e-04f  5
  33  3.9833524e+02 5.86e+00 2.96e+08  -1.0 1.67e+08    -  2.16e-02 1.48e-04f  6
  34  3.6030212e+02 3.78e+01 8.08e+09  -1.0 1.43e+08    -  2.20e-02 4.61e-03f  1
  35  3.5395317e+02 4.70e+01 8.10e+09  -1.0 1.50e+08    -  1.69e-02 4.54e-03f  1
  36  3.5211847e+02 4.68e+01 8.14e+09  -1.0 1.71e+08    -  1.66e-02 4.71e-03f  1
  37  3.5058156e+02 4.67e+01 8.14e+09  -1.0 2.49e+08    -  1.20e-02 1.95e-03f  2
  38  3.5926304e+02 4.66e+01 8.14e+09  -1.0 1.49e+08    -  1.54e-02 1.22e-03h  2
  39r 3.5926304e+02 4.66e+01 1.00e+03   1.7 0.00e+00    -  0.00e+00 4.66e-07R  9
iter    objective    inf_pr   inf_du lg(mu)  ||d||  lg(rg) alpha_du alpha_pr  ls
  40r 3.5926157e+02 1.39e+01 9.95e+02   1.7 1.18e+04    -  6.40e-03 3.32e-03f  1
  41r 3.5926157e+02 1.39e+01 9.99e+02   1.1 0.00e+00    -  0.00e+00 7.12e-08R  2
  42r 3.5926116e+02 4.33e+00 9.96e+02   1.1 8.15e+03    -  3.87e-03 1.69e-03f  1
  43  3.5945997e+02 4.33e+00 1.07e+04  -1.0 1.32e+08    -  5.88e-03 2.24e-05h  4
  44r 3.5945997e+02 4.33e+00 1.00e+03   0.6 0.00e+00    -  0.00e+00 2.67e-07R 13
  45r 3.5945951e+02 4.33e+00 9.97e+02   0.6 5.08e+03    -  9.41e-03 1.97e-03f  1
  46r 3.5945802e+02 4.00e+00 9.88e+02   0.6 4.52e+03    -  5.42e-03 9.29e-03f  1
  47r 3.5945792e+02 3.89e+00 9.85e+02   0.6 4.06e+03    -  4.16e-03 2.56e-03f  1
  48  3.5964849e+02 3.89e+00 2.24e+03  -1.0 4.97e+07    -  2.68e-02 1.18e-05h  1
  49  3.6083983e+02 3.89e+00 1.16e+05  -1.0 8.47e+07    -  8.82e-03 8.51e-05h  2
iter    objective    inf_pr   inf_du lg(mu)  ||d||  lg(rg) alpha_du alpha_pr  ls
  50  3.6264379e+02 3.89e+00 3.82e+05  -1.0 8.63e+07    -  8.57e-03 1.27e-04h  5
  51r 3.6264379e+02 3.89e+00 9.99e+02   0.6 0.00e+00    -  0.00e+00 4.21e-07R 11
  52r 3.6264364e+02 3.77e+00 9.92e+02   0.6 1.40e+03    -  1.74e-02 6.58e-03f  1
  53r 3.6264370e+02 2.88e+00 9.74e+02   0.6 1.93e+03    -  8.70e-03 1.84e-02f  1
  54r 3.6264370e+02 2.88e+00 9.99e+02   0.5 0.00e+00    -  0.00e+00 8.42e-08R  2
  55r 3.6264384e+02 2.17e+00 9.90e+02   0.5 2.42e+03    -  1.53e-02 8.38e-03f  1
  56  3.6669580e+02 2.17e+00 2.38e+04  -1.0 7.70e+07    -  1.72e-02 2.47e-04h  1
  57  3.6981714e+02 2.17e+00 2.99e+04  -1.0 8.22e+07    -  1.65e-02 1.85e-04h  9
  58  3.7279008e+02 2.17e+00 3.39e+04  -1.0 8.38e+07    -  1.65e-02 1.72e-04h  9
  59  3.7563054e+02 2.17e+00 3.87e+04  -1.0 8.53e+07    -  1.66e-02 1.61e-04h  9
iter    objective    inf_pr   inf_du lg(mu)  ||d||  lg(rg) alpha_du alpha_pr  ls
  60  3.7835145e+02 2.17e+00 4.58e+04  -1.0 8.68e+07    -  1.70e-02 1.51e-04h  9
  61  3.8096356e+02 2.17e+00 5.69e+04  -1.0 8.82e+07    -  1.78e-02 1.42e-04h  9
  62  3.8347591e+02 2.17e+00 7.50e+04  -1.0 8.96e+07    -  1.85e-02 1.34e-04h  9
  63  3.8589620e+02 2.17e+00 1.07e+05  -1.0 9.10e+07    -  2.01e-02 1.27e-04h  9
  64  3.9060457e+02 2.17e+00 1.66e+05  -1.0 9.23e+07    -  2.20e-02 2.40e-04h  8
  65  3.9499520e+02 2.17e+00 3.03e+05  -1.0 9.49e+07    -  2.58e-02 2.17e-04h  8
  66  3.9910653e+02 2.17e+00 6.22e+05  -1.0 9.73e+07    -  2.79e-02 1.98e-04h  8
  67  1.6458535e+03 8.62e+01 1.53e+08  -1.0 9.97e+07    -  4.20e-02 2.25e-02w  1
  68  2.3946123e+04 9.23e+01 1.62e+08  -1.0 1.99e+09    -  9.28e-04 5.12e-03w  1
  69  2.4974777e+05 2.12e+02 2.21e+08  -1.0 1.06e+10    -  2.24e-04 7.23e-03w  1
iter    objective    inf_pr   inf_du lg(mu)  ||d||  lg(rg) alpha_du alpha_pr  ls
  70  4.0285536e+02 2.17e+00 1.75e+06  -1.0 2.93e+12    -  4.20e-02 1.76e-04h  7
  71  4.0637283e+02 2.17e+00 5.22e+06  -1.0 1.02e+08    -  4.20e-02 1.61e-04h  8
  72  4.0966999e+02 2.17e+00 1.84e+07  -1.0 1.04e+08    -  4.91e-02 1.48e-04h  8
  73  4.1279219e+02 2.17e+00 2.22e+08  -1.0 1.06e+08    -  2.00e-01 1.38e-04h  8
  74  4.1589426e+02 2.17e+00 3.39e+08  -1.0 1.08e+08    -  3.18e-02 1.34e-04h  8
  75  4.1883566e+02 2.17e+00 5.63e+08  -1.0 1.10e+08    -  5.34e-02 1.25e-04h  8
  76  4.2162778e+02 2.17e+00 6.72e+08  -1.0 1.12e+08    -  2.32e-02 1.17e-04h  8
  77  4.2698063e+02 2.17e+00 1.40e+09  -1.0 1.14e+08    -  1.35e-01 2.19e-04h  7
  78  4.3181436e+02 2.17e+00 1.51e+09  -1.0 1.18e+08    -  1.59e-02 1.93e-04h  7
  79  4.3398616e+02 2.17e+00 2.65e+09  -1.0 1.21e+08    -  1.28e-01 8.56e-05h  8
iter    objective    inf_pr   inf_du lg(mu)  ||d||  lg(rg) alpha_du alpha_pr  ls
  80  9.4311285e+02 5.79e+01 2.11e+10  -1.0 1.23e+08    -  1.58e-02 1.03e-02w  1
  81  1.7089081e+03 5.79e+01 2.11e+10  -1.0 2.64e+09    -  1.11e-03 6.97e-04w  1
  82  1.0423214e+05 5.72e+01 2.59e+10  -1.0 2.42e+09    -  1.24e-03 1.27e-02w  1
  83  4.3501724e+02 2.17e+00 2.79e+09  -1.0 1.08e+10    -  1.58e-02 4.04e-05h  8
  84r 4.3501724e+02 2.17e+00 1.00e+03   0.3 0.00e+00    -  0.00e+00 3.07e-07R 16
  85r 4.3501723e+02 1.12e+00 9.94e+02   0.3 4.69e+03    -  9.38e-03 5.01e-03f  1
  86r 4.3501723e+02 1.12e+00 9.99e+02   0.0 0.00e+00    -  0.00e+00 9.04e-08R  2
  87r 4.3501745e+02 6.55e-01 9.91e+02   0.0 2.89e+03    -  2.11e-02 8.06e-03f  1
  88r 4.3501745e+02 6.55e-01 9.99e+02  -0.2 0.00e+00    -  0.00e+00 3.57e-07R  9
  89r 4.3501806e+02 6.30e-01 9.88e+02  -0.2 1.08e+03    -  1.40e-02 1.09e-02f  1
iter    objective    inf_pr   inf_du lg(mu)  ||d||  lg(rg) alpha_du alpha_pr  ls
  90r 4.3501844e+02 6.10e-01 9.75e+02  -0.2 1.07e+03    -  5.74e-02 1.37e-02f  1
  91r 4.3501784e+02 6.13e-01 9.38e+02  -0.2 1.07e+03    -  2.06e-01 3.81e-02f  1
  92r 4.3501665e+02 6.13e-01 8.74e+02  -0.2 1.05e+03    -  1.75e-02 6.81e-02f  1
  93r 4.3501426e+02 6.14e-01 7.48e+02  -0.2 9.88e+02    -  1.29e-01 1.51e-01f  1
  94r 4.3501292e+02 6.13e-01 7.19e+02  -0.2 8.42e+02    -  7.97e-03 7.28e-02f  1
  95r 4.3501275e+02 6.13e-01 1.09e+03  -0.2 7.96e+02    -  3.42e-01 2.73e-02f  1
  96r 4.3501127e+02 6.13e-01 5.91e+02  -0.2 7.88e+02    -  8.01e-03 1.55e-01f  1
  97r 4.3501026e+02 6.11e-01 5.52e+02  -0.2 6.74e+02    -  4.43e-01 5.24e-01f  1
  98r 4.3501026e+02 6.00e-01 4.97e+02  -0.2 2.43e+00   2.0 2.64e-03 4.02e-02f  1
  99r 4.3498451e+02 5.99e-01 1.97e+02  -0.2 3.38e+02    -  5.90e-01 5.68e-01f  1
iter    objective    inf_pr   inf_du lg(mu)  ||d||  lg(rg) alpha_du alpha_pr  ls
 100r 4.3496747e+02 5.98e-01 4.66e+02  -0.2 2.06e+02    -  9.89e-01 3.92e-01f  1
 101r 4.3495240e+02 5.97e-01 3.27e+00  -0.2 9.39e+01    -  9.90e-01 1.00e+00f  1
 102r 4.3495278e+02 5.97e-01 3.08e-01  -0.2 5.01e+00    -  9.91e-01 1.00e+00f  1
 103r 4.3495261e+02 5.98e-01 9.81e+00  -0.9 2.29e+01    -  9.34e-01 9.05e-01f  1
 104r 4.3487336e+02 5.98e-01 1.54e+01  -0.9 1.43e+03    -  1.00e+00 1.00e+00f  1
 105r 4.3487297e+02 5.98e-01 1.15e+03  -0.9 7.82e+02    -  1.00e+00 6.71e-02f  1
 106r 4.3487009e+02 5.98e-01 7.82e+00  -0.9 3.84e+02    -  1.00e+00 1.00e+00f  1
 107r 4.3487011e+02 5.98e-01 2.27e-04  -0.9 3.11e+00    -  1.00e+00 1.00e+00f  1
 108r 4.3487011e+02 5.99e-01 2.66e+01  -3.6 4.99e+01    -  9.85e-01 8.67e-01f  1
 109r 4.3345680e+02 5.99e-01 1.88e+01  -3.6 3.16e+04    -  7.46e-01 5.00e-01f  1
iter    objective    inf_pr   inf_du lg(mu)  ||d||  lg(rg) alpha_du alpha_pr  ls
 110r 4.3326656e+02 5.99e-01 2.02e+02  -3.6 1.94e+04    -  1.00e+00 1.34e-01f  1
 111r 4.3326555e+02 5.99e-01 2.09e+02  -3.6 1.05e+04    -  7.82e-03 7.70e-04f  1
 112r 4.3325454e+02 5.99e-01 1.90e+03  -3.6 1.31e+04    -  8.66e-01 8.21e-03f  1
 113r 4.3198073e+02 5.98e-01 1.02e+03  -3.6 1.35e+04    -  1.43e-03 9.33e-01f  1
 114r 4.3187290e+02 5.98e-01 1.10e+03  -3.6 1.98e+03    -  1.08e-01 1.00e+00h  1
 115r 4.3182058e+02 5.98e-01 8.84e-02  -3.6 5.96e+03    -  1.00e+00 1.00e+00f  1
 116r 4.3182356e+02 5.98e-01 1.67e-04  -3.6 1.26e+02    -  1.00e+00 1.00e+00h  1
 117r 4.3182355e+02 5.98e-01 1.04e-02  -8.0 5.81e-01    -  9.99e-01 1.00e+00f  1
 118r 4.3182355e+02 5.98e-01 1.04e-02  -8.0 3.12e-04   1.5 1.00e+00 1.00e+00f  1
 119r 4.3182355e+02 5.98e-01 1.04e-02  -8.0 9.37e-04   1.0 1.00e+00 1.00e+00f  1
iter    objective    inf_pr   inf_du lg(mu)  ||d||  lg(rg) alpha_du alpha_pr  ls
 120r 4.3182355e+02 5.98e-01 1.04e-02  -8.0 2.81e-03   0.6 1.00e+00 1.00e+00f  1
 121r 4.3182355e+02 5.98e-01 1.04e-02  -8.0 8.43e-03   0.1 1.00e+00 1.00e+00f  1
 122r 4.3182355e+02 5.98e-01 1.04e-02  -8.0 2.53e-02  -0.4 1.00e+00 1.00e+00f  1
 123r 4.3182354e+02 5.98e-01 1.04e-02  -8.0 7.59e-02  -0.9 1.00e+00 1.00e+00f  1
 124r 4.3182353e+02 5.98e-01 1.04e-02  -8.0 2.28e-01  -1.3 1.00e+00 1.00e+00f  1
 125r 4.3182348e+02 5.98e-01 1.04e-02  -8.0 6.83e-01  -1.8 1.00e+00 1.00e+00f  1
 126r 4.3182335e+02 5.98e-01 1.04e-02  -8.0 2.05e+00  -2.3 1.00e+00 1.00e+00f  1
 127r 4.3182294e+02 5.98e-01 1.04e-02  -8.0 6.14e+00  -2.8 1.00e+00 1.00e+00f  1
 128r 4.3182172e+02 5.98e-01 1.04e-02  -8.0 1.84e+01  -3.2 1.00e+00 1.00e+00f  1
 129r 4.3181809e+02 5.98e-01 1.03e-02  -8.0 5.48e+01  -3.7 1.00e+00 1.00e+00f  1
iter    objective    inf_pr   inf_du lg(mu)  ||d||  lg(rg) alpha_du alpha_pr  ls
 130r 4.3180728e+02 5.98e-01 1.01e-02  -8.0 1.62e+02  -4.2 1.00e+00 1.00e+00f  1
 131r 4.3177578e+02 5.98e-01 9.68e-03  -8.0 4.62e+02  -4.7 1.00e+00 1.00e+00f  1
 132r 4.3168817e+02 5.98e-01 8.63e-03  -8.0 1.22e+03  -5.2 1.00e+00 1.00e+00f  1
 133r 4.3146584e+02 5.97e-01 5.10e-02  -8.0 2.82e+03  -5.6 1.00e+00 1.00e+00f  1
 134r 4.3144939e+02 5.97e-01 4.65e+01  -8.0 7.89e+03  -6.1 1.00e+00 3.25e-02f  1
 135r 4.3144939e+02 5.97e-01 2.00e+03  -8.0 1.00e+04  -6.6 2.55e-01 9.68e-08h  1
 136r 4.3015002e+02 5.97e-01 2.55e+03  -8.0 1.70e+04  -7.1 3.71e-09 6.24e-01f  1
 137r 4.2916748e+02 5.95e-01 1.98e+03  -8.0 9.47e+04  -7.5 1.89e-01 2.23e-01f  1
 138r 4.2916748e+02 5.95e-01 1.98e+03  -8.0 1.25e+05  -8.0 0.00e+00 2.45e-13R 14
 139r 4.2916748e+02 5.95e-01 1.98e+03  -8.0 5.31e+05  -8.5 1.69e-01 1.61e-09f  1
iter    objective    inf_pr   inf_du lg(mu)  ||d||  lg(rg) alpha_du alpha_pr  ls
 140r 4.2681884e+02 5.95e-01 1.49e+03  -8.0 7.88e+04  -8.1 3.42e-01 2.50e-01f  1
 141r 4.2681884e+02 5.95e-01 1.49e+03  -8.0 2.89e+04  -7.6 7.88e-09 1.04e-08h  1
 142r 4.2572595e+02 5.94e-01 1.56e+03  -8.0 1.18e+05  -8.1 4.99e-01 1.09e-01f  1
 143r 4.2572595e+02 5.94e-01 1.56e+03  -8.0 3.52e+04  -7.7 3.38e-07 2.55e-08h  1
 144r 4.2474712e+02 5.94e-01 1.30e+03  -8.0 1.84e+05  -8.2 3.32e-01 8.82e-02f  1
 145r 4.2474712e+02 5.94e-01 1.46e+03  -8.0 3.70e+04  -7.7 1.00e+00 1.75e-08h  1
 146r 4.1831021e+02 5.94e-01 5.68e+02  -8.0 1.67e+05  -8.2 1.00e+00 6.02e-01f  1
 147r 4.1829432e+02 5.94e-01 6.39e+02  -8.0 2.27e+05  -7.8 1.00e+00 3.49e-03f  1
 148r 4.1298965e+02 5.94e-01 4.01e+02  -8.0 1.63e+05  -8.3 1.00e+00 5.26e-01f  1
 149r 4.1298965e+02 5.94e-01 5.99e+02  -8.0 1.00e+05  -7.8 1.00e+00 4.32e-09h  1
iter    objective    inf_pr   inf_du lg(mu)  ||d||  lg(rg) alpha_du alpha_pr  ls
 150r 4.0971280e+02 5.94e-01 5.81e+02  -8.0 5.83e+04  -8.3 1.00e+00 3.45e-01f  1
 151r 4.0643681e+02 5.94e-01 4.99e+02  -8.0 2.41e+05  -8.8 1.00e+00 1.36e-01f  1
 152r 4.0643681e+02 5.94e-01 9.13e+02  -8.0 7.75e+04  -8.4 1.00e+00 2.75e-08h  1
 153r 3.9828891e+02 5.94e-01 6.26e+02  -8.0 3.55e+05  -8.9 1.00e+00 3.43e-01f  1
 154r 3.9828891e+02 5.94e-01 8.92e+02  -8.0 1.78e+05  -8.4 1.00e+00 2.87e-08h  1
 155r 3.9756545e+02 5.94e-01 8.26e+02  -8.0 4.69e+04  -8.0 1.00e+00 2.06e-01f  1
 156r 3.9615837e+02 5.94e-01 6.98e+02  -8.0 2.44e+05  -8.5 1.00e+00 1.55e-01f  1
 157r 3.9615837e+02 5.94e-01 9.16e+02  -8.0 1.30e+05  -9.0 1.00e+00 2.73e-08h  1
 158r 3.9423820e+02 5.94e-01 9.43e+02  -8.0 5.16e+05  -9.4 1.00e+00 2.84e-02f  1
 159r 3.9353104e+02 5.94e-01 8.88e+02  -8.0 1.52e+05  -9.0 1.00e+00 2.81e-02f  1
iter    objective    inf_pr   inf_du lg(mu)  ||d||  lg(rg) alpha_du alpha_pr  ls
 160r 3.9045304e+02 5.94e-01 1.17e+03  -8.0 6.80e+05  -9.5 1.00e+00 4.54e-02f  1
 161r 3.9045142e+02 5.94e-01 1.26e+03  -8.0 1.89e+05  -9.1 1.00e+00 6.18e-05f  1
 162r 3.8486291e+02 5.94e-01 1.30e+03  -8.0 1.06e+06  -9.5 1.00e+00 7.60e-02f  1
 163r 3.8486270e+02 5.94e-01 1.94e+03  -8.0 8.24e+06 -10.0 9.89e-01 7.29e-07f  1
 164r 3.6767484e+02 5.95e-01 1.06e+03  -8.0 6.11e+05  -9.6 1.00e+00 2.83e-01f  1
 165r 3.6767479e+02 5.95e-01 7.93e+02  -8.0 2.52e+05  -9.2 1.00e+00 2.13e-06h  1
 166r 3.6723821e+02 5.96e-01 8.79e+02  -8.0 2.59e+06  -9.6 1.00e+00 6.49e-03f  1
 167r 3.6715479e+02 5.96e-01 8.74e+02  -8.0 1.84e+05  -9.2 1.00e+00 3.74e-03f  1
 168r 3.6317482e+02 5.96e-01 1.01e+03  -8.0 8.54e+05  -9.7 1.00e+00 7.16e-02f  1
 169r 3.6316853e+02 5.96e-01 1.39e+03  -8.0 2.43e+05  -9.3 1.00e+00 2.76e-04f  1
iter    objective    inf_pr   inf_du lg(mu)  ||d||  lg(rg) alpha_du alpha_pr  ls
 170r 3.5573379e+02 5.96e-01 1.33e+03  -8.0 1.73e+06  -9.7 1.00e+00 1.23e-01f  1
 171r 3.5573379e+02 5.96e-01 1.81e+03  -8.0 2.72e+06 -10.2 6.84e-01 1.67e-08h  1
 172r 3.4425274e+02 5.98e-01 1.02e+03  -8.0 6.08e+05  -9.8 1.00e+00 3.47e-01f  1
 173r 3.4425274e+02 5.98e-01 9.33e+02  -8.0 2.58e+05  -9.4 1.00e+00 2.30e-07h  1
 174r 3.4155187e+02 5.98e-01 1.02e+03  -8.0 1.45e+06  -9.8 1.00e+00 1.25e-01f  1
 175r 3.4155187e+02 5.98e-01 1.23e+03  -8.0 3.20e+06 -10.3 2.29e-01 3.84e-08h  1
 176r 3.4272223e+02 5.98e-01 1.04e+03  -8.0 5.79e+05  -9.9 1.63e-08 1.41e-01f  1
 177r 3.4272223e+02 5.98e-01 1.04e+03  -8.0 1.71e+04  -2.1 0.00e+00 3.47e-12R 15
 178r 3.4272223e+02 5.98e-01 1.67e+03  -8.0 6.76e+00  -1.6 1.59e-01 1.99e-07f  1
 179r 3.4272223e+02 5.98e-01 1.63e+03  -8.0 6.00e+01  -2.1 2.48e-02 1.80e-02f  1
iter    objective    inf_pr   inf_du lg(mu)  ||d||  lg(rg) alpha_du alpha_pr  ls
 180r 3.4272223e+02 5.98e-01 1.17e+03  -8.0 1.72e+00  -2.6 2.85e-02 2.32e-01f  1
 181r 3.4272223e+02 5.98e-01 1.16e+03  -8.0 2.96e+01  -3.1 1.52e-02 1.28e-02f  1
 182r 3.4272223e+02 5.98e-01 1.50e+03  -8.0 1.78e+01  -3.5 7.17e-03 8.61e-02f  1
In iteration 182, 1 Slack too small, adjusting variable bound
 183r 3.4272219e+02 5.98e-01 3.82e+03  -8.0 5.19e+01  -4.0 6.95e-03 2.39e-01f  1
 184r 3.4272218e+02 5.98e-01 3.53e+03  -8.0 1.62e+02  -4.5 4.14e-02 3.42e-02f  1
 185r 3.4272201e+02 5.98e-01 8.35e+03  -8.0 3.60e+02  -5.0 1.42e-02 2.67e-01f  1
In iteration 185, 1 Slack too small, adjusting variable bound
 186r 3.4272149e+02 5.98e-01 5.96e+03  -8.0 4.23e+02  -5.4 6.71e-03 2.86e-01f  1
 187r 3.4272128e+02 5.98e-01 5.72e+03  -8.0 6.23e+02  -5.9 1.30e-01 4.07e-02f  1
 188r 3.4271348e+02 5.98e-01 3.02e+03  -8.0 1.85e+03  -6.4 4.58e-02 4.71e-01f  1
 189r 3.4271123e+02 5.98e-01 2.88e+03  -8.0 5.38e+03  -6.9 7.85e-01 4.74e-02f  1
iter    objective    inf_pr   inf_du lg(mu)  ||d||  lg(rg) alpha_du alpha_pr  ls
 190r 3.4270995e+02 5.98e-01 2.85e+03  -8.0 1.48e+04  -7.3 1.00e+00 9.56e-03f  1
 191r 3.4270150e+02 5.98e-01 2.77e+03  -8.0 1.83e+04  -7.8 1.00e+00 2.89e-02f  1
 192r 3.4269316e+02 5.98e-01 2.73e+03  -8.0 5.11e+04  -8.3 1.00e+00 1.30e-02f  1
 193r 3.4269047e+02 5.98e-01 2.83e+03  -8.0 1.23e+05  -8.8 1.00e+00 2.22e-03f  1
 194r 3.4269241e+02 5.98e-01 3.88e+03  -8.0 2.18e+05  -9.3 1.00e+00 3.60e-03f  1
 195r 3.4286988e+02 5.99e-01 4.19e+03  -8.0 4.12e+05  -9.7 5.86e-01 2.71e-02f  1
 196r 3.4286988e+02 5.99e-01 4.19e+03  -8.0 1.33e+05  -9.3 0.00e+00 5.74e-15R 21
 197r 3.4287218e+02 5.99e-01 4.19e+03  -8.0 4.90e+05  -9.8 1.04e-09 4.91e-05f  1
 198r 3.4287218e+02 5.99e-01 4.19e+03  -8.0 2.25e+01  -1.9 6.81e-04 1.08e-04f  1
 199r 3.4287218e+02 5.99e-01 3.56e+03  -8.0 1.56e+00  -2.4 1.77e-01 3.20e-02f  1
iter    objective    inf_pr   inf_du lg(mu)  ||d||  lg(rg) alpha_du alpha_pr  ls
 200r 3.4287218e+02 5.99e-01 3.35e+03  -8.0 4.64e+00  -2.9 1.86e-02 1.27e-01f  1
 201r 3.4287217e+02 5.99e-01 3.00e+03  -8.0 1.36e+01  -3.4 3.18e-02 1.92e-01f  1
 202r 3.4287213e+02 5.99e-01 4.04e+03  -8.0 3.83e+01  -3.9 5.66e-03 4.29e-01f  1
 203r 3.4287206e+02 5.99e-01 6.47e+03  -8.0 8.42e+01  -4.3 6.31e-03 4.34e-01f  1
 204r 3.4287194e+02 5.99e-01 8.40e+03  -8.0 1.11e+02  -4.8 1.77e-02 4.71e-01f  1
 205r 3.4287184e+02 5.99e-01 7.66e+03  -8.0 2.05e+02  -5.3 1.26e-01 8.81e-02f  1
 206r 3.4287109e+02 5.99e-01 5.94e+03  -8.0 4.31e+02  -5.8 7.54e-01 2.25e-01f  1
 207r 3.4287085e+02 5.99e-01 5.80e+03  -8.0 1.28e+03  -6.2 1.00e+00 2.36e-02f  1
 208r 3.4287041e+02 5.99e-01 6.47e+03  -8.0 3.71e+03  -6.7 1.00e+00 1.54e-02f  1
 209r 3.4286981e+02 5.99e-01 6.69e+03  -8.0 4.34e+03  -7.2 1.00e+00 8.56e-03f  1
iter    objective    inf_pr   inf_du lg(mu)  ||d||  lg(rg) alpha_du alpha_pr  ls
 210r 3.4286406e+02 5.99e-01 6.33e+03  -8.0 1.28e+04  -7.7 1.00e+00 3.17e-02f  1
 211r 3.4285097e+02 5.99e-01 6.05e+03  -8.0 3.61e+04  -8.1 1.00e+00 3.17e-02f  1
 212r 3.4283019e+02 5.99e-01 6.16e+03  -8.0 9.07e+04  -8.6 1.00e+00 2.75e-02f  1
 213r 3.4279087e+02 5.99e-01 6.28e+03  -8.0 1.69e+05  -9.1 1.00e+00 2.33e-02f  1
 214r 3.4205423e+02 5.99e-01 3.68e+03  -8.0 2.68e+05  -9.6 1.00e+00 4.45e-01f  1
 215r 3.4709501e+02 6.00e-01 3.13e+03  -8.0 2.47e+06 -10.1 4.91e-01 1.47e-01f  1
 216r 3.4709501e+02 6.00e-01 3.13e+03  -8.0 6.38e+05  -9.6 0.00e+00 8.28e-13R 13
 217r 3.4709501e+02 6.00e-01 2.59e+03  -8.0 1.75e+05  -9.2 1.00e+00 9.86e-09f  1
 218r 3.5915692e+02 6.14e-01 1.21e+03  -8.0 2.90e+05  -9.7 7.10e-02 4.97e-01F  1
In iteration 218, 1 Slack too small, adjusting variable bound
 219r 3.5915692e+02 6.14e-01 1.32e+03  -8.0 2.14e+00  -1.8 1.69e-01 4.77e-07h  1
In iteration 219, 1 Slack too small, adjusting variable bound
iter    objective    inf_pr   inf_du lg(mu)  ||d||  lg(rg) alpha_du alpha_pr  ls
 220r 3.5915692e+02 6.14e-01 1.39e+03  -8.0 1.46e+00  -2.3 4.38e-02 8.34e-05f  1
 221r 3.5915692e+02 6.14e-01 9.36e+02  -8.0 5.75e+00  -2.8 8.48e-03 2.40e-01f  1
 222r 3.5915692e+02 6.14e-01 2.03e+03  -8.0 9.50e+00  -3.3 1.53e-02 3.03e-01f  1
 223r 3.5915689e+02 6.13e-01 3.75e+03  -8.0 2.41e+01  -3.7 2.52e-02 5.32e-01f  1
 224r 3.5915686e+02 6.13e-01 8.92e+03  -8.0 6.81e+01  -4.2 6.13e-03 2.39e-01f  1
 225r 3.5915668e+02 6.13e-01 7.05e+03  -8.0 7.27e+01  -4.7 2.82e-03 2.10e-01f  1
 226r 3.5915667e+02 6.13e-01 6.99e+03  -8.0 1.10e+02  -5.2 4.87e-01 8.39e-03f  1
 227r 3.5915667e+02 6.13e-01 6.99e+03  -8.0 1.66e+02  -5.7 1.01e-02 7.12e-05f  1
 228r 3.5915348e+02 6.13e-01 5.74e+03  -8.0 3.15e+02  -6.1 8.88e-01 1.78e-01f  1
 229r 3.5914943e+02 6.13e-01 5.42e+03  -8.0 8.99e+02  -6.6 1.93e-01 7.47e-02f  1
iter    objective    inf_pr   inf_du lg(mu)  ||d||  lg(rg) alpha_du alpha_pr  ls
 230r 3.5913681e+02 6.13e-01 5.51e+03  -8.0 2.67e+03  -7.1 1.00e+00 7.84e-02f  1
 231r 3.5868442e+02 6.13e-01 4.32e+02  -8.0 7.81e+03  -7.6 6.47e-01 9.25e-01f  1
 232r 3.5750274e+02 6.13e-01 6.53e+01  -8.0 2.32e+04  -8.0 1.00e+00 8.39e-01f  1
 233r 3.5750274e+02 6.13e-01 6.53e+01  -8.0 2.87e+04  -8.5 0.00e+00 4.63e-14R 18
 234r 3.5750274e+02 6.13e-01 1.03e+03  -8.0 7.00e+04  -9.0 1.00e+00 9.35e-13f 13
 235r 3.5559693e+02 6.13e-01 1.40e+03  -8.0 2.08e+05  -9.5 1.00e+00 5.34e-02f  1
 236r 3.5387582e+02 6.13e-01 1.52e+03  -8.0 1.24e+06  -9.9 1.00e+00 3.99e-02f  1
 237r 3.4454366e+02 6.14e-01 9.48e+01  -8.0 2.75e+05  -9.5 1.00e+00 9.31e-01f  1
 238r 3.4281344e+02 6.14e-01 3.71e+00  -8.0 1.49e+05  -9.1 1.00e+00 9.08e-01f  1
 239r 3.4271613e+02 6.14e-01 6.98e+00  -8.0 6.75e+04  -8.7 1.00e+00 5.48e-01f  1
iter    objective    inf_pr   inf_du lg(mu)  ||d||  lg(rg) alpha_du alpha_pr  ls
 240r 3.4271613e+02 6.14e-01 6.98e+00  -8.0 1.18e+06    -  0.00e+00 8.29e-14R 15
 241r 3.4271613e+02 6.14e-01 1.95e+03  -8.0 1.18e+06    -  1.00e+00 1.35e-09f  1
 242r 3.3854232e+02 6.20e-01 3.98e+02  -8.0 9.10e+05    -  1.00e+00 6.87e-01f  1
 243r 3.3854231e+02 6.20e-01 5.91e+02  -8.0 1.16e+05  -9.1 8.22e-01 2.89e-08h  1
 244r 3.3854231e+02 6.20e-01 2.00e+03  -8.0 9.07e+05    -  9.53e-01 1.41e-08h  1
 245r 3.3855292e+02 6.20e-01 1.96e+03  -8.0 8.48e+05    -  1.13e-07 1.94e-02f  1
 246r 3.3855195e+02 6.20e-01 1.96e+03  -8.0 1.77e+06    -  1.54e-07 3.93e-05h  1
 247r 3.3855195e+02 6.20e-01 1.96e+03  -8.0 9.41e+05    -  2.75e-08 5.01e-08h  1
 248r 3.3855195e+02 6.20e-01 1.96e+03  -8.0 1.40e+06    -  0.00e+00 7.51e-12R  6
 249r 3.3855195e+02 6.20e-01 1.96e+03  -8.0 1.61e+06    -  5.26e-06 2.38e-10f  1
iter    objective    inf_pr   inf_du lg(mu)  ||d||  lg(rg) alpha_du alpha_pr  ls
 250r 3.3839799e+02 6.20e-01 6.22e+02  -8.0 1.23e+05    -  8.35e-01 1.14e-02f  6
 251r 3.3815959e+02 6.20e-01 5.97e+02  -8.0 1.42e+05    -  1.00e+00 2.36e-02f  5
 252r 3.3793774e+02 6.20e-01 5.70e+02  -8.0 1.49e+05    -  1.00e+00 2.52e-02f  5
 253r 3.3773494e+02 6.20e-01 5.41e+02  -8.0 1.55e+05    -  1.00e+00 2.69e-02f  5
 254r 3.3755279e+02 6.20e-01 5.10e+02  -8.0 1.60e+05    -  1.00e+00 2.87e-02f  5
 255r 3.3524836e+02 6.22e-01 2.50e+02  -8.0 1.64e+05    -  1.00e+00 4.90e-01f  1
 256r 3.3891799e+02 6.24e-01 3.10e+01  -8.0 1.61e+05    -  1.00e+00 8.97e-01f  1
 257r 3.4162489e+02 6.26e-01 1.81e-01  -8.0 7.03e+04    -  1.00e+00 9.96e-01f  1
 258r 3.4197082e+02 6.26e-01 3.78e-03  -8.0 9.14e+03    -  1.00e+00 1.00e+00f  1
 259r 3.4197818e+02 6.26e-01 1.42e-06  -8.0 1.77e+02    -  1.00e+00 1.00e+00h  1

Number of Iterations....: 259

                                   (scaled)                 (unscaled)
Objective...............:   3.4197818110484621e+02    3.4197818110484621e+02
Dual infeasibility......:   1.2569554293509857e-03    1.2569554293509857e-03
Constraint violation....:   6.2575295724312963e-01    6.2575295724312963e-01
Complementarity.........:   1.1200226216327540e-08    1.1200226216327540e-08
Overall NLP error.......:   6.2575295724312963e-01    6.2575295724312963e-01


Number of objective function evaluations             = 756
Number of objective gradient evaluations             = 69
Number of equality constraint evaluations            = 763
Number of inequality constraint evaluations          = 0
Number of equality constraint Jacobian evaluations   = 277
Number of inequality constraint Jacobian evaluations = 0
Number of Lagrangian Hessian evaluations             = 260
Total CPU secs in IPOPT (w/o function evaluations)   =      0.444
Total CPU secs in NLP function evaluations           =      9.533

EXIT: Converged to a point of local infeasibility. Problem may be infeasible.
